103 6
13 16 14 14 13 13
1 0 0 0 0 0 0 3 2 3 4
6 7 5 0 0 0 5 1 7
1 0 0 9 6 10 0 1 6
9 0 0 1 0 0 4 3 5 103 8
1 0 0 1 0 0 10 1 9
3 0 0 6 9 0 0 1 103
7 0 0 0 0 0 0 2 10 11
7 0 0 6 0 7 7 1 12
1 0 8 0 0 0 0 1 15
1 9 10 0 3 4 9 1 14
7 3 0 0 4 10 3 2 103 16
1 0 10 7 0 0 5 1 13
4 2 0 0 5 2 0 1 18
8 1 0 8 8 0 0 1 20
6 0 2 0 4 8 0 2 17 103
6 0 5 0 4 5 0 1 19
4 0 0 0 0 2 0 1 24
4 0 0 7 0 0 1 1 21
8 1 1 10 8 2 0 1 22
8 0 4 0 8 0 8 2 103 23
9 0 0 0 0 1 0 1 26
6 3 8 0 2 10 0 1 103
5 9 0 0 0 6 0 3 25 27 28
9 5 0 0 4 0 0 1 103
7 0 0 8 9 0 0 1 30
3 8 8 8 0 0 0 1 32
8 8 9 0 0 5 0 2 29 31
7 9 0 0 1 0 0 1 103
7 8 7 0 0 9 10 3 33 35 36
8 6 5 7 4 6 10 1 103
1 2 4 9 0 0 2 1 103
8 0 10 7 7 0 3 1 34
6 4 9 1 5 5 0 2 37 39
2 0 0 0 1 0 6 2 38 40
6 2 0 10 0 5 0 1 103
8 0 9 9 0 4 2 1 103
6 0 10 0 0 0 8 1 43
3 0 7 0 2 5 9 2 41 42
4 0 9 10 10 10 4 1 44
1 0 2 0 0 10 0 1 103
8 9 7 0 0 0 4 1 48
6 7 8 7 0 0 6 1 47
8 2 0 0 3 4 7 1 45
2 5 7 8 0 6 4 1 46
3 0 0 0 0 2 2 1 51
4 0 0 0 0 0 0 1 52
9 0 1 6 4 0 0 3 49 50 103
1 0 0 0 7 0 0 1 103
9 0 4 4 4 0 9 1 55
8 1 7 0 0 0 0 1 54
5 7 1 0 0 0 9 1 53
2 0 0 0 8 8 8 2 103 56
4 0 0 0 9 0 7 1 58
4 0 1 0 0 0 1 1 60
8 2 2 0 0 8 0 1 57
7 0 0 1 0 2 0 1 59
8 9 7 1 9 0 0 3 61 62 63
2 0 5 0 0 2 0 1 103
5 3 4 0 0 4 4 1 64
8 0 7 1 7 0 0 1 103
5 5 6 0 0 0 0 1 67
4 0 10 0 7 6 0 2 65 66
3 0 1 0 0 0 6 1 68
3 5 4 10 0 0 9 1 103
5 3 0 0 6 7 0 1 69
5 0 6 7 0 3 0 1 103
5 0 0 10 0 4 0 2 70 71
3 5 10 0 2 0 1 1 72
6 0 6 1 0 0 0 1 75
9 9 0 0 0 7 9 1 76
9 0 0 0 2 10 4 1 103
2 9 0 7 0 0 0 3 73 74 103
6 0 0 7 10 0 5 2 79 80
3 0 0 8 0 0 10 1 103
4 0 6 0 0 0 0 1 103
8 6 7 6 0 6 0 2 77 78
6 4 0 3 6 9 3 1 82
7 0 10 0 3 8 8 1 83
2 0 3 9 9 5 0 2 103 84
8 6 0 7 0 8 1 1 81
8 7 0 8 0 0 8 1 87
9 8 0 0 6 0 0 2 86 103
2 0 3 1 5 0 0 2 85 88
3 6 0 0 0 3 4 1 103
8 7 0 9 0 0 0 3 89 90 91
3 10 0 0 10 2 6 1 91
6 0 0 7 10 0 9 1 92
8 0 0 0 9 0 0 1 92
7 0 10 0 0 0 2 1 96
10 0 0 0 5 0 0 2 95 96
2 0 0 7 0 2 0 1 93
2 3 2 0 0 10 0 2 93 94
6 0 0 2 8 0 3 1 97
1 0 6 2 1 0 0 1 98
5 9 0 0 4 0 0 1 100
10 0 1 1 0 0 0 2 99 100
2 0 1 1 0 0 0 1 101
1 5 10 0 1 0 0 1 102
1 1 0 2 6 0 0 1 101
9 0 7 0 0 0 0 1 101
6 3 0 1 0 0 2 1 103
10 0 0 0 0 0 2 1 103
0 0 0 0 0 0 0 0
